

******************************************************************************
This program contains Ipopt, a library for large-scale nonlinear optimization.
 Ipopt is released as open source code under the Eclipse Public License (EPL).
         For more information visit http://projects.coin-or.org/Ipopt
******************************************************************************

This is Ipopt version 3.12.8, running with linear solver mumps.
NOTE: Other linear solvers might be more efficient (see Ipopt documentation).

Number of nonzeros in equality constraint Jacobian...:        0
Number of nonzeros in inequality constraint Jacobian.:        6
Number of nonzeros in Lagrangian Hessian.............:        3

Total number of variables............................:        2
                     variables with only lower bounds:        0
                variables with lower and upper bounds:        2
                     variables with only upper bounds:        0
Total number of equality constraints.................:        0
Total number of inequality constraints...............:        3
        inequality constraints with only lower bounds:        3
   inequality constraints with lower and upper bounds:        0
        inequality constraints with only upper bounds:        0

iter    objective    inf_pr   inf_du lg(mu)  ||d||  lg(rg) alpha_du alpha_pr  ls
   0  6.3651555e+01 3.41e+01 4.22e-01  -1.0 0.00e+00    -  0.00e+00 0.00e+00   0
   1  6.1431489e+01 3.23e+01 8.74e-01  -1.0 1.53e+02    -  2.83e-02 5.37e-02f  1
   2  3.1639009e+01 4.99e+01 6.00e+00  -1.0 1.43e+02    -  1.24e-01 1.00e+00f  1
   3  3.0387330e+01 2.49e-02 3.11e-01  -1.0 1.57e+02    -  8.41e-01 1.00e+00h  1
   4  3.0396339e+01 0.00e+00 4.70e-01  -1.0 4.13e+00    -  7.96e-01 1.00e+00h  1
   5  2.7639141e+01 0.00e+00 2.17e-01  -1.0 1.20e+02    -  7.83e-02 1.00e+00f  1
   6  1.7521623e+01 1.10e+02 6.34e-01  -1.0 4.45e+02    -  8.99e-01 1.00e+00f  1
   7  1.6011014e+01 1.41e+02 6.07e-01  -1.0 6.42e+03  -4.0 8.63e-02 4.73e-03f  1
   8 -6.6894086e+00 2.34e+02 8.20e-02  -1.0 1.98e+03  -4.5 1.00e+00 3.01e-01f  1
   9 -3.8036694e+00 3.58e+00 1.30e+00  -1.0 1.81e+01    -  1.00e+00 9.15e-01h  1
iter    objective    inf_pr   inf_du lg(mu)  ||d||  lg(rg) alpha_du alpha_pr  ls
  10 -4.3713486e+00 4.57e+01 5.58e-01  -1.0 1.63e+01    -  3.48e-01 1.00e+00f  1
  11 -7.9667325e+00 5.72e+01 2.20e+00  -1.0 2.28e+01    -  1.00e+00 5.00e-01h  1
  12 -7.9069635e+00 5.19e+01 3.91e-01  -1.0 2.49e+01    -  7.62e-01 2.34e-01h  3
  13 -8.1216885e+00 5.23e+01 2.75e+01  -1.0 2.23e+02    -  2.05e-01 3.03e-03h  2
  14 -8.0970110e+00 5.23e+01 1.89e+02  -1.0 1.98e+03    -  8.46e-03 4.55e-05h  6
  15 -8.2690283e+00 5.42e+01 4.49e+03  -1.0 2.30e+03   0.5 5.73e-04 1.78e-03f  3
  16 -3.1940459e-01 0.00e+00 2.48e+04  -1.0 2.31e+02    -  1.11e-03 1.00e+00h  1
  17  1.3735858e+00 0.00e+00 7.50e+01  -1.0 2.49e+02    -  4.79e-01 1.00e+00h  1
  18  1.3836063e+00 0.00e+00 6.01e-01  -1.0 6.19e-01  -0.0 1.00e+00 1.00e+00h  1
  19  1.3659533e+00 0.00e+00 7.45e-02  -1.7 2.30e-01  -0.5 1.00e+00 1.00e+00h  1
iter    objective    inf_pr   inf_du lg(mu)  ||d||  lg(rg) alpha_du alpha_pr  ls
  20  1.3128183e+00 0.00e+00 7.47e-02  -2.5 6.92e-01  -1.0 1.00e+00 1.00e+00f  1
  21  1.1518093e+00 0.00e+00 7.54e-02  -2.5 2.10e+00  -1.4 1.00e+00 1.00e+00f  1
  22  6.5365256e-01 0.00e+00 7.77e-02  -2.5 6.48e+00  -1.9 1.00e+00 1.00e+00f  1
  23 -9.9679742e-01 0.00e+00 8.69e-02  -2.5 2.18e+01  -2.4 1.00e+00 1.00e+00f  1
  24 -4.7576692e+00 0.00e+00 1.13e+00  -2.5 1.76e+02  -2.9 1.00e+00 5.00e-01f  2
  25 -4.8762493e+00 0.00e+00 9.34e-01  -2.5 1.96e+02  -2.4 3.40e-01 5.67e-02h  4
  26 -3.2092344e+00 0.00e+00 4.14e-01  -2.5 2.23e+01  -1.1 1.00e+00 2.50e-01h  3
  27 -4.3404584e+00 0.00e+00 7.73e-01  -2.5 5.30e+01  -1.6 9.64e-01 7.37e-02h  4
  28 -4.6975011e+00 0.00e+00 2.08e+02  -2.5 8.23e+01  -0.3 6.68e-01 1.00e+00h  1
  29 -4.6936383e+00 0.00e+00 4.22e+00  -2.5 5.24e+00  -0.7 1.00e+00 1.00e+00h  1
iter    objective    inf_pr   inf_du lg(mu)  ||d||  lg(rg) alpha_du alpha_pr  ls
  30 -4.6952362e+00 0.00e+00 4.09e-02  -2.5 1.02e-01  -1.2 1.00e+00 1.00e+00h  1
  31 -4.7025863e+00 0.00e+00 1.05e-02  -2.5 5.29e-01  -1.7 1.00e+00 1.00e+00h  1
  32 -4.7106611e+00 0.00e+00 5.63e-03  -3.8 8.47e-01  -2.2 1.00e+00 1.00e+00h  1
  33 -4.7163024e+00 0.00e+00 2.04e-03  -3.8 9.18e-01  -2.7 1.00e+00 1.00e+00h  1
  34 -4.7237700e+00 0.00e+00 2.24e-03  -3.8 3.03e+00  -3.1 1.00e+00 1.00e+00h  1
  35 -4.7470610e+00 0.00e+00 2.42e-03  -3.8 9.81e+00  -3.6 1.00e+00 1.00e+00h  1
  36 -4.8455707e+00 0.00e+00 2.97e-03  -3.8 3.61e+01  -4.1 1.00e+00 1.00e+00f  1
  37 -6.1984545e+00 0.00e+00 3.12e-02  -3.8 2.56e+02  -4.6 1.00e+00 1.00e+00f  1
  38 -7.5108080e+00 0.00e+00 1.38e-02  -3.8 1.44e+02  -4.1 1.00e+00 1.00e+00h  1
  39 -7.7964266e+00 0.00e+00 1.42e-02  -3.8 8.11e+03  -4.6 2.86e-01 3.17e-03f  1
iter    objective    inf_pr   inf_du lg(mu)  ||d||  lg(rg) alpha_du alpha_pr  ls
  40 -7.7931003e+00 0.00e+00 9.42e-05  -3.8 8.46e-01    -  1.00e+00 1.00e+00h  1
  41 -7.8026559e+00 0.00e+00 5.13e-07  -3.8 8.38e-01    -  1.00e+00 1.00e+00h  1
  42 -7.8027877e+00 0.00e+00 1.30e-10  -5.7 1.15e-02    -  1.00e+00 1.00e+00h  1
  43 -7.8027895e+00 0.00e+00 2.51e-14  -8.6 1.61e-04    -  1.00e+00 1.00e+00h  1

Number of Iterations....: 43

                                   (scaled)                 (unscaled)
Objective...............:  -7.8027895490191668e+00   -7.8027895490191668e+00
Dual infeasibility......:   2.5059815333960955e-14    2.5059815333960955e-14
Constraint violation....:   0.0000000000000000e+00    0.0000000000000000e+00
Complementarity.........:   2.5063314228849778e-09    2.5063314228849778e-09
Overall NLP error.......:   2.5063314228849778e-09    2.5063314228849778e-09


Number of objective function evaluations             = 72
Number of objective gradient evaluations             = 44
Number of equality constraint evaluations            = 0
Number of inequality constraint evaluations          = 72
Number of equality constraint Jacobian evaluations   = 0
Number of inequality constraint Jacobian evaluations = 44
Number of Lagrangian Hessian evaluations             = 43
Total CPU secs in IPOPT (w/o function evaluations)   =      0.007
Total CPU secs in NLP function evaluations           =      0.000

EXIT: Optimal Solution Found.
 
Ipopt 3.12.8: Optimal Solution Found
